nbGenes = 10;
preference = [[0 8 50 8 50 22 85 11 74 4 ]
[92 0 81 73 24 90 25 20 63 55 ]
[50 19 0 54 49 24 83 49 13 26 ]
[92 27 46 0 89 77 74 95 36 40 ]
[50 76 51 11 0 93 34 97 75 22 ]
[78 10 76 23 7 0 88 1 53 81 ]
[15 75 17 26 66 12 0 32 69 62 ]
[89 80 51 5 3 99 68 0 64 73 ]
[26 37 87 64 25 47 31 36 0 58 ]
[96 45 74 60 78 19 38 27 42 0 ]
];
